networks/zoo_74_1332/zoo_74_1332-lower.txt
Number of groups: 37
Flow 1: {1 35 0} {35 2 0} {2 39 0} 
Flow 2: {35 34 0} {34 3 0} {3 40 0} 
Flow 3: {35 4 0} {4 41 0} 
Flow 4: {35 5 0} {5 42 0} 
Flow 5: {35 6 0} {6 43 0} 
Flow 6: {35 7 0} {7 44 0} 
Flow 7: {35 8 0} {8 45 0} 
Flow 8: {35 30 0} {30 9 0} {9 46 0} 
Flow 9: {30 10 0} {10 47 0} 
Flow 10: {35 32 0} {32 11 0} {11 48 0} 
Flow 11: {32 12 0} {12 49 0} 
Flow 12: {35 33 0} {33 13 0} {13 50 0} 
Flow 13: {33 14 0} {14 51 0} 
Flow 14: {33 15 0} {15 52 0} 
Flow 15: {33 16 0} {16 53 0} 
Flow 16: {35 17 0} {17 54 0} 
Flow 17: {32 18 0} {18 55 0} 
Flow 18: {30 19 0} {19 56 0} 
Flow 19: {30 20 0} {20 57 0} 
Flow 20: {30 21 0} {21 58 0} 
Flow 21: {30 22 0} {22 59 0} 
Flow 22: {30 23 0} {23 60 0} 
Flow 23: {30 24 0} {24 61 0} 
Flow 24: {30 25 0} {25 62 0} 
Flow 25: {30 26 0} {26 63 0} 
Flow 26: {30 27 0} {27 64 0} 
Flow 27: {34 28 0} {28 65 0} 
Flow 28: {34 29 0} {29 66 0} 
Flow 29: {30 67 0} 
Flow 30: {30 31 0} {31 68 0} 
Flow 31: {32 69 0} 
Flow 32: {33 70 0} 
Flow 33: {34 71 0} 
Flow 34: {35 72 0} 
Flow 35: {31 36 0} {36 73 0} 
Flow 36: {31 37 0} {37 74 0} 
Flow 37: {35 1 0} {1 38 0} 
Flow 37: {2 35 0} Flow 73: {3 34 0} {34 35 0} Flow 80: {34 30 0} Flow 82: {30 32 0} Flow 84: {30 33 0} Flow 109: {4 35 0} Flow 145: {5 35 0} Flow 181: {6 35 0} Flow 217: {7 35 0} Flow 253: {8 35 0} Flow 289: {9 30 0} {30 35 0} Flow 291: {30 34 0} Flow 325: {10 30 0} Flow 361: {11 32 0} {32 35 0} Flow 363: {32 30 0} Flow 397: {12 32 0} Flow 433: {13 33 0} {33 35 0} Flow 435: {33 30 0} Flow 469: {14 33 0} Flow 505: {15 33 0} Flow 541: {16 33 0} Flow 577: {17 35 0} Flow 613: {18 32 0} Flow 649: {19 30 0} Flow 685: {20 30 0} Flow 721: {21 30 0} Flow 757: {22 30 0} Flow 793: {23 30 0} Flow 829: {24 30 0} Flow 865: {25 30 0} Flow 901: {26 30 0} Flow 937: {27 30 0} Flow 973: {28 34 0} Flow 1009: {29 34 0} Flow 1081: {31 30 0} Flow 1261: {36 31 0} Flow 1297: {37 31 0} Time taken running everything: 1 seconds
