networks/zoo_74_1332/zoo_74_1332-lower.sol
<?xml version = "1.0" encoding="UTF-8" standalone="yes"?>
<CPLEXSolution version="1.2">
 <header
   problemName="networks/zoo_74_1332/zoo_74_1332-lower.lp"
   solutionName="incumbent"
   solutionIndex="-1"
   objectiveValue="37"
   solutionTypeValue="3"
   solutionTypeString="primal"
   solutionStatusValue="101"
   solutionStatusString="integer optimal solution"
   solutionMethodString="mip"
   primalFeasible="1"
   dualFeasible="1"
   MIPNodes="0"
   MIPIterations="0"
   writeLevel="3"/>
 <quality
   epInt="1.0000000000000001e-05"
   epRHS="9.9999999999999995e-07"
   maxIntInfeas="0"
   maxPrimalInfeas="0"
   maxX="1"
   maxSlack="1"/>
 <variables>
  <variable name="Y(1,2)" index="1" value="1"/>
  <variable name="Y(2,3)" index="76" value="1"/>
  <variable name="Y(3,4)" index="151" value="1"/>
  <variable name="Y(4,5)" index="226" value="1"/>
  <variable name="Y(5,6)" index="301" value="1"/>
  <variable name="Y(6,7)" index="376" value="1"/>
  <variable name="Y(7,8)" index="451" value="1"/>
  <variable name="Y(8,9)" index="526" value="1"/>
  <variable name="Y(9,10)" index="601" value="1"/>
  <variable name="Y(10,11)" index="676" value="1"/>
  <variable name="Y(11,12)" index="751" value="1"/>
  <variable name="Y(12,13)" index="826" value="1"/>
  <variable name="Y(13,14)" index="901" value="1"/>
  <variable name="Y(14,15)" index="976" value="1"/>
  <variable name="Y(15,16)" index="1051" value="1"/>
  <variable name="Y(16,17)" index="1126" value="1"/>
  <variable name="Y(17,18)" index="1201" value="1"/>
  <variable name="Y(18,19)" index="1276" value="1"/>
  <variable name="Y(19,20)" index="1351" value="1"/>
  <variable name="Y(20,21)" index="1426" value="1"/>
  <variable name="Y(21,22)" index="1501" value="1"/>
  <variable name="Y(22,23)" index="1576" value="1"/>
  <variable name="Y(23,24)" index="1651" value="1"/>
  <variable name="Y(24,25)" index="1726" value="1"/>
  <variable name="Y(25,26)" index="1801" value="1"/>
  <variable name="Y(26,27)" index="1876" value="1"/>
  <variable name="Y(27,28)" index="1951" value="1"/>
  <variable name="Y(28,29)" index="2026" value="1"/>
  <variable name="Y(29,30)" index="2101" value="1"/>
  <variable name="Y(30,31)" index="2176" value="1"/>
  <variable name="Y(31,32)" index="2251" value="1"/>
  <variable name="Y(32,33)" index="2326" value="1"/>
  <variable name="Y(33,34)" index="2401" value="1"/>
  <variable name="Y(34,35)" index="2476" value="1"/>
  <variable name="Y(35,36)" index="2551" value="1"/>
  <variable name="Y(36,37)" index="2626" value="1"/>
  <variable name="Y(37,1)" index="2664" value="1"/>
  <variable name="X(1,35,1)" index="98568" value="1"/>
  <variable name="X(1,38,37)" index="99936" value="1"/>
  <variable name="X(2,35,37)" index="101268" value="1"/>
  <variable name="X(2,39,1)" index="102564" value="1"/>
  <variable name="X(3,34,73)" index="103968" value="1"/>
  <variable name="X(3,40,2)" index="105229" value="1"/>
  <variable name="X(4,35,109)" index="106668" value="1"/>
  <variable name="X(4,41,3)" index="107894" value="1"/>
  <variable name="X(5,35,145)" index="109368" value="1"/>
  <variable name="X(5,42,4)" index="110559" value="1"/>
  <variable name="X(6,35,181)" index="112068" value="1"/>
  <variable name="X(6,43,5)" index="113224" value="1"/>
  <variable name="X(7,35,217)" index="114768" value="1"/>
  <variable name="X(7,44,6)" index="115889" value="1"/>
  <variable name="X(8,35,253)" index="117468" value="1"/>
  <variable name="X(8,45,7)" index="118554" value="1"/>
  <variable name="X(9,30,289)" index="120168" value="1"/>
  <variable name="X(9,46,8)" index="121219" value="1"/>
  <variable name="X(10,30,325)" index="122868" value="1"/>
  <variable name="X(10,47,9)" index="123884" value="1"/>
  <variable name="X(11,32,361)" index="125568" value="1"/>
  <variable name="X(11,48,10)" index="126549" value="1"/>
  <variable name="X(12,32,397)" index="128268" value="1"/>
  <variable name="X(12,49,11)" index="129214" value="1"/>
  <variable name="X(13,33,433)" index="130968" value="1"/>
  <variable name="X(13,50,12)" index="131879" value="1"/>
  <variable name="X(14,33,469)" index="133668" value="1"/>
  <variable name="X(14,51,13)" index="134544" value="1"/>
  <variable name="X(15,33,505)" index="136368" value="1"/>
  <variable name="X(15,52,14)" index="137209" value="1"/>
  <variable name="X(16,33,541)" index="139068" value="1"/>
  <variable name="X(16,53,15)" index="139874" value="1"/>
  <variable name="X(17,35,577)" index="141768" value="1"/>
  <variable name="X(17,54,16)" index="142539" value="1"/>
  <variable name="X(18,32,613)" index="144468" value="1"/>
  <variable name="X(18,55,17)" index="145204" value="1"/>
  <variable name="X(19,30,649)" index="147168" value="1"/>
  <variable name="X(19,56,18)" index="147869" value="1"/>
  <variable name="X(20,30,685)" index="149868" value="1"/>
  <variable name="X(20,57,19)" index="150534" value="1"/>
  <variable name="X(21,30,721)" index="152568" value="1"/>
  <variable name="X(21,58,20)" index="153199" value="1"/>
  <variable name="X(22,30,757)" index="155268" value="1"/>
  <variable name="X(22,59,21)" index="155864" value="1"/>
  <variable name="X(23,30,793)" index="157968" value="1"/>
  <variable name="X(23,60,22)" index="158529" value="1"/>
  <variable name="X(24,30,829)" index="160668" value="1"/>
  <variable name="X(24,61,23)" index="161194" value="1"/>
  <variable name="X(25,30,865)" index="163368" value="1"/>
  <variable name="X(25,62,24)" index="163859" value="1"/>
  <variable name="X(26,30,901)" index="166068" value="1"/>
  <variable name="X(26,63,25)" index="166524" value="1"/>
  <variable name="X(27,30,937)" index="168768" value="1"/>
  <variable name="X(27,64,26)" index="169189" value="1"/>
  <variable name="X(28,34,973)" index="171468" value="1"/>
  <variable name="X(28,65,27)" index="171854" value="1"/>
  <variable name="X(29,34,1009)" index="174168" value="1"/>
  <variable name="X(29,66,28)" index="174519" value="1"/>
  <variable name="X(30,9,8)" index="175831" value="1"/>
  <variable name="X(30,10,9)" index="177164" value="1"/>
  <variable name="X(30,19,18)" index="178505" value="1"/>
  <variable name="X(30,20,19)" index="179838" value="1"/>
  <variable name="X(30,21,20)" index="181171" value="1"/>
  <variable name="X(30,22,21)" index="182504" value="1"/>
  <variable name="X(30,23,22)" index="183837" value="1"/>
  <variable name="X(30,24,23)" index="185170" value="1"/>
  <variable name="X(30,25,24)" index="186503" value="1"/>
  <variable name="X(30,26,25)" index="187836" value="1"/>
  <variable name="X(30,27,26)" index="189169" value="1"/>
  <variable name="X(30,31,30)" index="190505" value="1"/>
  <variable name="X(30,32,82)" index="191889" value="1"/>
  <variable name="X(30,33,84)" index="193223" value="1"/>
  <variable name="X(30,34,291)" index="194762" value="1"/>
  <variable name="X(30,35,289)" index="196092" value="1"/>
  <variable name="X(30,67,29)" index="197164" value="1"/>
  <variable name="X(31,30,1081)" index="199548" value="1"/>
  <variable name="X(31,36,35)" index="199834" value="1"/>
  <variable name="X(31,37,36)" index="201167" value="1"/>
  <variable name="X(31,68,30)" index="202493" value="1"/>
  <variable name="X(32,11,10)" index="203805" value="1"/>
  <variable name="X(32,12,11)" index="205138" value="1"/>
  <variable name="X(32,18,17)" index="206476" value="1"/>
  <variable name="X(32,30,363)" index="208154" value="1"/>
  <variable name="X(32,35,361)" index="209484" value="1"/>
  <variable name="X(32,69,31)" index="210486" value="1"/>
  <variable name="X(33,13,12)" index="211799" value="1"/>
  <variable name="X(33,14,13)" index="213132" value="1"/>
  <variable name="X(33,15,14)" index="214465" value="1"/>
  <variable name="X(33,16,15)" index="215798" value="1"/>
  <variable name="X(33,30,435)" index="217550" value="1"/>
  <variable name="X(33,35,433)" index="218880" value="1"/>
  <variable name="X(33,70,32)" index="219811" value="1"/>
  <variable name="X(34,3,2)" index="221113" value="1"/>
  <variable name="X(34,28,27)" index="222470" value="1"/>
  <variable name="X(34,29,28)" index="223803" value="1"/>
  <variable name="X(34,30,80)" index="225187" value="1"/>
  <variable name="X(34,35,73)" index="226512" value="1"/>
  <variable name="X(34,71,33)" index="227804" value="1"/>
  <variable name="X(35,1,37)" index="229140" value="1"/>
  <variable name="X(35,2,1)" index="230436" value="1"/>
  <variable name="X(35,4,3)" index="231770" value="1"/>
  <variable name="X(35,5,4)" index="233103" value="1"/>
  <variable name="X(35,6,5)" index="234436" value="1"/>
  <variable name="X(35,7,6)" index="235769" value="1"/>
  <variable name="X(35,8,7)" index="237102" value="1"/>
  <variable name="X(35,17,16)" index="238443" value="1"/>
  <variable name="X(35,30,8)" index="239767" value="1"/>
  <variable name="X(35,32,10)" index="241101" value="1"/>
  <variable name="X(35,33,12)" index="242435" value="1"/>
  <variable name="X(35,34,2)" index="243757" value="1"/>
  <variable name="X(35,72,34)" index="245121" value="1"/>
  <variable name="X(36,31,1261)" index="247680" value="1"/>
  <variable name="X(36,73,35)" index="247786" value="1"/>
  <variable name="X(37,31,1297)" index="250380" value="1"/>
  <variable name="X(37,74,36)" index="250451" value="1"/>
 </variables>
</CPLEXSolution>
